; Command:
; > z3 -in -smt2

(set-logic QF_UFBV)
(declare-fun theory0_len ((_ BitVec 64)) (_ BitVec 64)); theory len
(declare-fun theory1_safe ((_ BitVec 64)) Bool); theory safe
(declare-fun theory2_nullterm ((_ BitVec 64)) Bool); theory nullterm
(declare-fun theory3_symbol ((_ BitVec 64)) Bool); theory symbol
; : /home/runner/work/carrier/carrier/modules/net/src/address.zz:5
; : /home/runner/work/carrier/carrier/modules/net/src/address.zz:4
; : /home/runner/work/carrier/carrier/modules/slice/src/mut_slice.zz:5
; : /home/runner/work/carrier/carrier/modules/net/src/address.zz:461
; : /home/runner/work/carrier/carrier/modules/net/src/address.zz:461
; : /home/runner/work/carrier/carrier/modules/net/src/address.zz:462
; literal expr
(declare-fun var9_literal_0__t0 () (_ BitVec 64))
(assert
  (= var9_literal_0__t0 (_ bv0 64))

)

; : /home/runner/work/carrier/carrier/modules/net/src/address.zz:462
; literal expr
(declare-fun var10_literal_1__t0 () (_ BitVec 64))
(assert
  (= var10_literal_1__t0 (_ bv1 64))

)

; : /home/runner/work/carrier/carrier/modules/net/src/address.zz:462
; literal expr
(declare-fun var11_literal_2__t0 () (_ BitVec 64))
(assert
  (= var11_literal_2__t0 (_ bv2 64))

)

; : /home/runner/work/carrier/carrier/modules/net/src/address.zz:462
; literal expr
(declare-fun var12_literal_3__t0 () (_ BitVec 64))
(assert
  (= var12_literal_3__t0 (_ bv3 64))

)

; : /home/runner/work/carrier/carrier/modules/net/src/address.zz:462
; literal expr
(declare-fun var13_literal_4__t0 () (_ BitVec 64))
(assert
  (= var13_literal_4__t0 (_ bv4 64))

)

; : /home/runner/work/carrier/carrier/modules/net/src/address.zz:462
; literal expr
(declare-fun var14_literal_5__t0 () (_ BitVec 64))
(assert
  (= var14_literal_5__t0 (_ bv5 64))

)

; : /home/runner/work/carrier/carrier/modules/net/src/address.zz:462
; literal expr
(declare-fun var15_literal_6__t0 () (_ BitVec 64))
(assert
  (= var15_literal_6__t0 (_ bv6 64))

)

; : /home/runner/work/carrier/carrier/modules/net/src/address.zz:462
; literal expr
(declare-fun var16_literal_7__t0 () (_ BitVec 64))
(assert
  (= var16_literal_7__t0 (_ bv7 64))

)

; : /home/runner/work/carrier/carrier/modules/net/src/address.zz:463
; literal expr
(declare-fun var17_literal_8__t0 () (_ BitVec 64))
(assert
  (= var17_literal_8__t0 (_ bv8 64))

)

; : /home/runner/work/carrier/carrier/modules/net/src/address.zz:463
; literal expr
(declare-fun var18_literal_9__t0 () (_ BitVec 64))
(assert
  (= var18_literal_9__t0 (_ bv9 64))

)

; : /home/runner/work/carrier/carrier/modules/net/src/address.zz:463
; literal expr
(declare-fun var19_literal_0__t0 () (_ BitVec 64))
(assert
  (= var19_literal_0__t0 (_ bv0 64))

)

; : /home/runner/work/carrier/carrier/modules/net/src/address.zz:463
; literal expr
(declare-fun var20_literal_0__t0 () (_ BitVec 64))
(assert
  (= var20_literal_0__t0 (_ bv0 64))

)

; : /home/runner/work/carrier/carrier/modules/net/src/address.zz:463
; literal expr
(declare-fun var21_literal_0__t0 () (_ BitVec 64))
(assert
  (= var21_literal_0__t0 (_ bv0 64))

)

; : /home/runner/work/carrier/carrier/modules/net/src/address.zz:463
; literal expr
(declare-fun var22_literal_0__t0 () (_ BitVec 64))
(assert
  (= var22_literal_0__t0 (_ bv0 64))

)

; : /home/runner/work/carrier/carrier/modules/net/src/address.zz:463
; literal expr
(declare-fun var23_literal_0__t0 () (_ BitVec 64))
(assert
  (= var23_literal_0__t0 (_ bv0 64))

)

; : /home/runner/work/carrier/carrier/modules/net/src/address.zz:463
; literal expr
(declare-fun var24_literal_0__t0 () (_ BitVec 64))
(assert
  (= var24_literal_0__t0 (_ bv0 64))

)

; : /home/runner/work/carrier/carrier/modules/net/src/address.zz:464
; literal expr
(declare-fun var25_literal_0__t0 () (_ BitVec 64))
(assert
  (= var25_literal_0__t0 (_ bv0 64))

)

; : /home/runner/work/carrier/carrier/modules/net/src/address.zz:464
; literal expr
(declare-fun var26_literal_10__t0 () (_ BitVec 64))
(assert
  (= var26_literal_10__t0 (_ bv10 64))

)

; : /home/runner/work/carrier/carrier/modules/net/src/address.zz:464
; literal expr
(declare-fun var27_literal_11__t0 () (_ BitVec 64))
(assert
  (= var27_literal_11__t0 (_ bv11 64))

)

; : /home/runner/work/carrier/carrier/modules/net/src/address.zz:464
; literal expr
(declare-fun var28_literal_12__t0 () (_ BitVec 64))
(assert
  (= var28_literal_12__t0 (_ bv12 64))

)

; : /home/runner/work/carrier/carrier/modules/net/src/address.zz:464
; literal expr
(declare-fun var29_literal_13__t0 () (_ BitVec 64))
(assert
  (= var29_literal_13__t0 (_ bv13 64))

)

; : /home/runner/work/carrier/carrier/modules/net/src/address.zz:464
; literal expr
(declare-fun var30_literal_14__t0 () (_ BitVec 64))
(assert
  (= var30_literal_14__t0 (_ bv14 64))

)

; : /home/runner/work/carrier/carrier/modules/net/src/address.zz:464
; literal expr
(declare-fun var31_literal_15__t0 () (_ BitVec 64))
(assert
  (= var31_literal_15__t0 (_ bv15 64))

)

; : /home/runner/work/carrier/carrier/modules/net/src/address.zz:464
; literal expr
(declare-fun var32_literal_0__t0 () (_ BitVec 64))
(assert
  (= var32_literal_0__t0 (_ bv0 64))

)

; : /home/runner/work/carrier/carrier/modules/net/src/address.zz:465
; literal expr
(declare-fun var33_literal_0__t0 () (_ BitVec 64))
(assert
  (= var33_literal_0__t0 (_ bv0 64))

)

; : /home/runner/work/carrier/carrier/modules/net/src/address.zz:465
; literal expr
(declare-fun var34_literal_0__t0 () (_ BitVec 64))
(assert
  (= var34_literal_0__t0 (_ bv0 64))

)

; : /home/runner/work/carrier/carrier/modules/net/src/address.zz:465
; literal expr
(declare-fun var35_literal_0__t0 () (_ BitVec 64))
(assert
  (= var35_literal_0__t0 (_ bv0 64))

)

; : /home/runner/work/carrier/carrier/modules/net/src/address.zz:465
; literal expr
(declare-fun var36_literal_0__t0 () (_ BitVec 64))
(assert
  (= var36_literal_0__t0 (_ bv0 64))

)

; : /home/runner/work/carrier/carrier/modules/net/src/address.zz:465
; literal expr
(declare-fun var37_literal_0__t0 () (_ BitVec 64))
(assert
  (= var37_literal_0__t0 (_ bv0 64))

)

; : /home/runner/work/carrier/carrier/modules/net/src/address.zz:465
; literal expr
(declare-fun var38_literal_0__t0 () (_ BitVec 64))
(assert
  (= var38_literal_0__t0 (_ bv0 64))

)

; : /home/runner/work/carrier/carrier/modules/net/src/address.zz:465
; literal expr
(declare-fun var39_literal_0__t0 () (_ BitVec 64))
(assert
  (= var39_literal_0__t0 (_ bv0 64))

)

; : /home/runner/work/carrier/carrier/modules/net/src/address.zz:465
; literal expr
(declare-fun var40_literal_0__t0 () (_ BitVec 64))
(assert
  (= var40_literal_0__t0 (_ bv0 64))

)

; : /home/runner/work/carrier/carrier/modules/net/src/address.zz:461
(declare-fun var41_literal_array_41__t0 () (_ BitVec 64))
(declare-fun var42_true__t0 () Bool)
(assert
  (= var42_true__t0 (theory1_safe var41_literal_array_41__t0) )
)

(assert
  var42_true__t0
)

; : /home/runner/work/carrier/carrier/modules/net/src/address.zz:461
(declare-fun var43_safe_literal_array_41_____safe___net__address__hexmap___t0 () Bool)
(assert
  (= var43_safe_literal_array_41_____safe___net__address__hexmap___t0 (theory1_safe var41_literal_array_41__t0) )
)

(declare-fun var8___net__address__hexmap__t1 () (_ BitVec 64))
(assert
  (= var43_safe_literal_array_41_____safe___net__address__hexmap___t0 (theory1_safe var8___net__address__hexmap__t1) )
)

(declare-fun var44_nullterm_literal_array_41_____nullterm___net__address__hexmap___t0 () Bool)
(assert
  (= var44_nullterm_literal_array_41_____nullterm___net__address__hexmap___t0 (theory2_nullterm var41_literal_array_41__t0) )
)

(assert
  (= var44_nullterm_literal_array_41_____nullterm___net__address__hexmap___t0 (theory2_nullterm var8___net__address__hexmap__t1) )
)

(declare-fun var77_len___net__address__hexmap___t0 () (_ BitVec 64))
(assert
  (= var77_len___net__address__hexmap___t0 (theory0_len var8___net__address__hexmap__t1) )
)

(assert
  (= var77_len___net__address__hexmap___t0 (_ bv32 64))

)

; : /home/runner/work/carrier/carrier/modules/net/src/address.zz:23
; : /home/runner/work/carrier/carrier/modules/net/src/address.zz:34
(declare-fun var79___net__address__eq__t0 () (_ BitVec 64))
(declare-fun var80_true__t0 () Bool)
(assert
  (= var80_true__t0 (theory1_safe var79___net__address__eq__t0) )
)

(assert
  var80_true__t0
)

; : /home/runner/work/carrier/carrier/modules/net/src/address.zz:16
; : /home/runner/work/carrier/carrier/modules/net/src/address.zz:10
(declare-fun var83___net__address__Type__Invalid__t0 () (_ BitVec 64))
(assert
  (= var83___net__address__Type__Invalid__t0 (_ bv0 64))

)

(declare-fun var84___net__address__Type__Ipv4__t0 () (_ BitVec 64))
(assert
  (= var84___net__address__Type__Ipv4__t0 (_ bv1 64))

)

(declare-fun var85___net__address__Type__Ipv6__t0 () (_ BitVec 64))
(assert
  (= var85___net__address__Type__Ipv6__t0 (_ bv2 64))

)

; : /home/runner/work/carrier/carrier/modules/net/src/address.zz:436
(declare-fun var86___net__address__set_ip__t0 () (_ BitVec 64))
(declare-fun var87_true__t0 () Bool)
(assert
  (= var87_true__t0 (theory1_safe var86___net__address__set_ip__t0) )
)

(assert
  var87_true__t0
)

; : /home/runner/work/carrier/carrier/modules/byteorder/src/lib.zz:75
(declare-fun var88___byteorder__swap16__t0 () (_ BitVec 64))
(declare-fun var89_true__t0 () Bool)
(assert
  (= var89_true__t0 (theory1_safe var88___byteorder__swap16__t0) )
)

(assert
  var89_true__t0
)

; : /home/runner/work/carrier/carrier/modules/byteorder/src/lib.zz:5
(declare-fun var90___byteorder__to_be16__t0 () (_ BitVec 64))
(declare-fun var91_true__t0 () Bool)
(assert
  (= var91_true__t0 (theory1_safe var90___byteorder__to_be16__t0) )
)

(assert
  var91_true__t0
)

; : /home/runner/work/carrier/carrier/modules/byteorder/src/lib.zz:11
(declare-fun var92___byteorder__from_be16__t0 () (_ BitVec 64))
(declare-fun var93_true__t0 () Bool)
(assert
  (= var93_true__t0 (theory1_safe var92___byteorder__from_be16__t0) )
)

(assert
  var93_true__t0
)

; : /home/runner/work/carrier/carrier/modules/buffer/src/lib.zz:11
; : /home/runner/work/carrier/carrier/modules/buffer/src/lib.zz:16
(declare-fun theory95___buffer__integrity ((_ BitVec 64) (_ BitVec 64)) Bool); theory ::buffer::integrity
; : /home/runner/work/carrier/carrier/modules/buffer/src/lib.zz:134
(declare-fun var96___buffer__available__t0 () (_ BitVec 64))
(declare-fun var97_true__t0 () Bool)
(assert
  (= var97_true__t0 (theory1_safe var96___buffer__available__t0) )
)

(assert
  var97_true__t0
)

; : /home/runner/work/carrier/carrier/modules/buffer/src/lib.zz:114
(declare-fun var98___buffer__strlen__t0 () (_ BitVec 64))
(declare-fun var99_true__t0 () Bool)
(assert
  (= var99_true__t0 (theory1_safe var98___buffer__strlen__t0) )
)

(assert
  var99_true__t0
)

; : /home/runner/work/carrier/carrier/modules/net/src/address.zz:74
(declare-fun var100___net__address__from_str__t0 () (_ BitVec 64))
(declare-fun var101_true__t0 () Bool)
(assert
  (= var101_true__t0 (theory1_safe var100___net__address__from_str__t0) )
)

(assert
  var101_true__t0
)

; : /home/runner/work/carrier/carrier/modules/net/src/address.zz:62
(declare-fun var102___net__address__from_cstr__t0 () (_ BitVec 64))
(declare-fun var103_true__t0 () Bool)
(assert
  (= var103_true__t0 (theory1_safe var102___net__address__from_cstr__t0) )
)

(assert
  var103_true__t0
)

; : /home/runner/work/carrier/carrier/modules/slice/src/slice.zz:3
; : /home/runner/work/carrier/carrier/modules/slice/src/slice.zz:8
(declare-fun theory105___slice__slice__integrity ((_ BitVec 64)) Bool); theory ::slice::slice::integrity
; : /home/runner/work/carrier/carrier/modules/buffer/src/lib.zz:161
(declare-fun var106___buffer__append_slice__t0 () (_ BitVec 64))
(declare-fun var107_true__t0 () Bool)
(assert
  (= var107_true__t0 (theory1_safe var106___buffer__append_slice__t0) )
)

(assert
  var107_true__t0
)

; : /home/runner/work/carrier/carrier/modules/net/src/address.zz:381
(declare-fun var108___net__address__get_port__t0 () (_ BitVec 64))
(declare-fun var109_true__t0 () Bool)
(assert
  (= var109_true__t0 (theory1_safe var108___net__address__get_port__t0) )
)

(assert
  var109_true__t0
)

; : /home/runner/work/carrier/carrier/modules/buffer/src/lib.zz:101
(declare-fun var110___buffer__pop__t0 () (_ BitVec 64))
(declare-fun var111_true__t0 () Bool)
(assert
  (= var111_true__t0 (theory1_safe var110___buffer__pop__t0) )
)

(assert
  var111_true__t0
)

; : /home/runner/work/carrier/carrier/modules/buffer/src/lib.zz:194
(declare-fun var112___buffer__format__t0 () (_ BitVec 64))
(declare-fun var113_true__t0 () Bool)
(assert
  (= var113_true__t0 (theory1_safe var112___buffer__format__t0) )
)

(assert
  var113_true__t0
)

; : /home/runner/work/carrier/carrier/modules/buffer/src/lib.zz:84
(declare-fun var114___buffer__push__t0 () (_ BitVec 64))
(declare-fun var115_true__t0 () Bool)
(assert
  (= var115_true__t0 (theory1_safe var114___buffer__push__t0) )
)

(assert
  var115_true__t0
)

; : /home/runner/work/carrier/carrier/modules/net/src/address.zz:248
(declare-fun var116___net__address__ip_to_buffer__t0 () (_ BitVec 64))
(declare-fun var117_true__t0 () Bool)
(assert
  (= var117_true__t0 (theory1_safe var116___net__address__ip_to_buffer__t0) )
)

(assert
  var117_true__t0
)

; : /home/runner/work/carrier/carrier/modules/buffer/src/lib.zz:178
(declare-fun var118___buffer__append_bytes__t0 () (_ BitVec 64))
(declare-fun var119_true__t0 () Bool)
(assert
  (= var119_true__t0 (theory1_safe var118___buffer__append_bytes__t0) )
)

(assert
  var119_true__t0
)

; : /home/runner/work/carrier/carrier/modules/slice/src/mut_slice.zz:11
(declare-fun theory120___slice__mut_slice__integrity ((_ BitVec 64)) Bool); theory ::slice::mut_slice::integrity
; : /home/runner/work/carrier/carrier/modules/slice/src/mut_slice.zz:20
(declare-fun var121___slice__mut_slice__make__t0 () (_ BitVec 64))
(declare-fun var122_true__t0 () Bool)
(assert
  (= var122_true__t0 (theory1_safe var121___slice__mut_slice__make__t0) )
)

(assert
  var122_true__t0
)

; : /home/runner/work/carrier/carrier/modules/slice/src/mut_slice.zz:49
(declare-fun var123___slice__mut_slice__append_slice__t0 () (_ BitVec 64))
(declare-fun var124_true__t0 () Bool)
(assert
  (= var124_true__t0 (theory1_safe var123___slice__mut_slice__append_slice__t0) )
)

(assert
  var124_true__t0
)

; : /home/runner/work/carrier/carrier/modules/buffer/src/lib.zz:236
(declare-fun var125___buffer__eq_cstr__t0 () (_ BitVec 64))
(declare-fun var126_true__t0 () Bool)
(assert
  (= var126_true__t0 (theory1_safe var125___buffer__eq_cstr__t0) )
)

(assert
  var126_true__t0
)

; : /home/runner/work/carrier/carrier/modules/slice/src/slice.zz:51
(declare-fun var127___slice__slice__make__t0 () (_ BitVec 64))
(declare-fun var128_true__t0 () Bool)
(assert
  (= var128_true__t0 (theory1_safe var127___slice__slice__make__t0) )
)

(assert
  var128_true__t0
)

; : /home/runner/work/carrier/carrier/modules/buffer/src/lib.zz:286
(declare-fun var129___buffer__ends_with_cstr__t0 () (_ BitVec 64))
(declare-fun var130_true__t0 () Bool)
(assert
  (= var130_true__t0 (theory1_safe var129___buffer__ends_with_cstr__t0) )
)

(assert
  var130_true__t0
)

; : /home/runner/work/carrier/carrier/modules/slice/src/slice.zz:43
(declare-fun var131___slice__slice__empty__t0 () (_ BitVec 64))
(declare-fun var132_true__t0 () Bool)
(assert
  (= var132_true__t0 (theory1_safe var131___slice__slice__empty__t0) )
)

(assert
  var132_true__t0
)

; : /home/runner/work/carrier/carrier/modules/net/src/address.zz:99
(declare-fun var133___net__address__from_str_ipv6__t0 () (_ BitVec 64))
(declare-fun var134_true__t0 () Bool)
(assert
  (= var134_true__t0 (theory1_safe var133___net__address__from_str_ipv6__t0) )
)

(assert
  var134_true__t0
)

; : /home/runner/work/carrier/carrier/modules/net/src/address.zz:196
(declare-fun var135___net__address__from_str_ipv4__t0 () (_ BitVec 64))
(declare-fun var136_true__t0 () Bool)
(assert
  (= var136_true__t0 (theory1_safe var135___net__address__from_str_ipv4__t0) )
)

(assert
  var136_true__t0
)

; : /home/runner/work/carrier/carrier/modules/net/src/address.zz:74
; : /home/runner/work/carrier/carrier/modules/buffer/src/lib.zz:33
(declare-fun var137___buffer__clear__t0 () (_ BitVec 64))
(declare-fun var138_true__t0 () Bool)
(assert
  (= var138_true__t0 (theory1_safe var137___buffer__clear__t0) )
)

(assert
  var138_true__t0
)

; : /home/runner/work/carrier/carrier/modules/buffer/src/lib.zz:398
(declare-fun var139___buffer__copy_bytes__t0 () (_ BitVec 64))
(declare-fun var140_true__t0 () Bool)
(assert
  (= var140_true__t0 (theory1_safe var139___buffer__copy_bytes__t0) )
)

(assert
  var140_true__t0
)

; : /home/runner/work/carrier/carrier/modules/buffer/src/lib.zz:367
(declare-fun var141___buffer__split__t0 () (_ BitVec 64))
(declare-fun var142_true__t0 () Bool)
(assert
  (= var142_true__t0 (theory1_safe var141___buffer__split__t0) )
)

(assert
  var142_true__t0
)

; : /home/runner/work/carrier/carrier/modules/buffer/src/lib.zz:59
(declare-fun var143___buffer__as_slice__t0 () (_ BitVec 64))
(declare-fun var144_true__t0 () Bool)
(assert
  (= var144_true__t0 (theory1_safe var143___buffer__as_slice__t0) )
)

(assert
  var144_true__t0
)

; : /home/runner/work/carrier/carrier/modules/buffer/src/lib.zz:143
(declare-fun var145___buffer__append_cstr__t0 () (_ BitVec 64))
(declare-fun var146_true__t0 () Bool)
(assert
  (= var146_true__t0 (theory1_safe var145___buffer__append_cstr__t0) )
)

(assert
  var146_true__t0
)

; : /home/runner/work/carrier/carrier/modules/net/src/address.zz:359
(declare-fun var147___net__address__set_port__t0 () (_ BitVec 64))
(declare-fun var148_true__t0 () Bool)
(assert
  (= var148_true__t0 (theory1_safe var147___net__address__set_port__t0) )
)

(assert
  var148_true__t0
)

; : /home/runner/work/carrier/carrier/modules/net/src/address.zz:326
(declare-fun var149___net__address__to_buffer__t0 () (_ BitVec 64))
(declare-fun var150_true__t0 () Bool)
(assert
  (= var150_true__t0 (theory1_safe var149___net__address__to_buffer__t0) )
)

(assert
  var150_true__t0
)

; : /home/runner/work/carrier/carrier/modules/buffer/src/lib.zz:43
(declare-fun var151___buffer__slen__t0 () (_ BitVec 64))
(declare-fun var152_true__t0 () Bool)
(assert
  (= var152_true__t0 (theory1_safe var151___buffer__slen__t0) )
)

(assert
  var152_true__t0
)

; : /home/runner/work/carrier/carrier/modules/net/src/address.zz:23
; : /home/runner/work/carrier/carrier/modules/slice/src/slice.zz:135
(declare-fun var153___slice__slice__atoi__t0 () (_ BitVec 64))
(declare-fun var154_true__t0 () Bool)
(assert
  (= var154_true__t0 (theory1_safe var153___slice__slice__atoi__t0) )
)

(assert
  var154_true__t0
)

; : /home/runner/work/carrier/carrier/modules/slice/src/mut_slice.zz:101
(declare-fun var155___slice__mut_slice__push__t0 () (_ BitVec 64))
(declare-fun var156_true__t0 () Bool)
(assert
  (= var156_true__t0 (theory1_safe var155___slice__mut_slice__push__t0) )
)

(assert
  var156_true__t0
)

; : /home/runner/work/carrier/carrier/modules/net/src/address.zz:99
; : /home/runner/work/carrier/carrier/modules/net/src/address.zz:29
(declare-fun var157___net__address__none__t0 () (_ BitVec 64))
(declare-fun var158_true__t0 () Bool)
(assert
  (= var158_true__t0 (theory1_safe var157___net__address__none__t0) )
)

(assert
  var158_true__t0
)

; : /home/runner/work/carrier/carrier/modules/buffer/src/lib.zz:418
(declare-fun var159___buffer__copy_cstr__t0 () (_ BitVec 64))
(declare-fun var160_true__t0 () Bool)
(assert
  (= var160_true__t0 (theory1_safe var159___buffer__copy_cstr__t0) )
)

(assert
  var160_true__t0
)

; : /home/runner/work/carrier/carrier/modules/buffer/src/lib.zz:75
(declare-fun var161___buffer__as_mut_slice__t0 () (_ BitVec 64))
(declare-fun var162_true__t0 () Bool)
(assert
  (= var162_true__t0 (theory1_safe var161___buffer__as_mut_slice__t0) )
)

(assert
  var162_true__t0
)

; : /home/runner/work/carrier/carrier/modules/slice/src/slice.zz:24
(declare-fun var163___slice__slice__eq_cstr__t0 () (_ BitVec 64))
(declare-fun var164_true__t0 () Bool)
(assert
  (= var164_true__t0 (theory1_safe var163___slice__slice__eq_cstr__t0) )
)

(assert
  var164_true__t0
)

; : /home/runner/work/carrier/carrier/modules/buffer/src/lib.zz:207
(declare-fun var165___buffer__vformat__t0 () (_ BitVec 64))
(declare-fun var166_true__t0 () Bool)
(assert
  (= var166_true__t0 (theory1_safe var165___buffer__vformat__t0) )
)

(assert
  var166_true__t0
)

; : /home/runner/work/carrier/carrier/modules/buffer/src/lib.zz:408
(declare-fun var167___buffer__copy_slice__t0 () (_ BitVec 64))
(declare-fun var168_true__t0 () Bool)
(assert
  (= var168_true__t0 (theory1_safe var167___buffer__copy_slice__t0) )
)

(assert
  var168_true__t0
)

; : /home/runner/work/carrier/carrier/modules/slice/src/slice.zz:33
(declare-fun var169___slice__slice__eq_bytes__t0 () (_ BitVec 64))
(declare-fun var170_true__t0 () Bool)
(assert
  (= var170_true__t0 (theory1_safe var169___slice__slice__eq_bytes__t0) )
)

(assert
  var170_true__t0
)

; : /home/runner/work/carrier/carrier/modules/buffer/src/lib.zz:270
(declare-fun var171___buffer__starts_with_cstr__t0 () (_ BitVec 64))
(declare-fun var172_true__t0 () Bool)
(assert
  (= var172_true__t0 (theory1_safe var171___buffer__starts_with_cstr__t0) )
)

(assert
  var172_true__t0
)

; : /home/runner/work/carrier/carrier/modules/net/src/address.zz:196
; : /home/runner/work/carrier/carrier/modules/slice/src/mut_slice.zz:146
(declare-fun var173___slice__mut_slice__push64__t0 () (_ BitVec 64))
(declare-fun var174_true__t0 () Bool)
(assert
  (= var174_true__t0 (theory1_safe var173___slice__mut_slice__push64__t0) )
)

(assert
  var174_true__t0
)

; : /home/runner/work/carrier/carrier/modules/slice/src/slice.zz:14
(declare-fun var175___slice__slice__eq__t0 () (_ BitVec 64))
(declare-fun var176_true__t0 () Bool)
(assert
  (= var176_true__t0 (theory1_safe var175___slice__slice__eq__t0) )
)

(assert
  var176_true__t0
)

; : /home/runner/work/carrier/carrier/modules/slice/src/mut_slice.zz:161
(declare-fun var177___slice__mut_slice__append_obj__t0 () (_ BitVec 64))
(declare-fun var178_true__t0 () Bool)
(assert
  (= var178_true__t0 (theory1_safe var177___slice__mut_slice__append_obj__t0) )
)

(assert
  var178_true__t0
)

; : /home/runner/work/carrier/carrier/modules/net/src/address.zz:39
(declare-fun var179___net__address__valid__t0 () (_ BitVec 64))
(declare-fun var180_true__t0 () Bool)
(assert
  (= var180_true__t0 (theory1_safe var179___net__address__valid__t0) )
)

(assert
  var180_true__t0
)

; : /home/runner/work/carrier/carrier/modules/net/src/address.zz:406
(declare-fun var181___net__address__get_ip__t0 () (_ BitVec 64))
(declare-fun var182_true__t0 () Bool)
(assert
  (= var182_true__t0 (theory1_safe var181___net__address__get_ip__t0) )
)

(assert
  var182_true__t0
)

; : /home/runner/work/carrier/carrier/modules/net/src/address.zz:53
(declare-fun var183___net__address__from_buffer__t0 () (_ BitVec 64))
(declare-fun var184_true__t0 () Bool)
(assert
  (= var184_true__t0 (theory1_safe var183___net__address__from_buffer__t0) )
)

(assert
  var184_true__t0
)

; : /home/runner/work/carrier/carrier/modules/slice/src/slice.zz:95
(declare-fun var185___slice__slice__sub__t0 () (_ BitVec 64))
(declare-fun var186_true__t0 () Bool)
(assert
  (= var186_true__t0 (theory1_safe var185___slice__slice__sub__t0) )
)

(assert
  var186_true__t0
)

; : /home/runner/work/carrier/carrier/modules/slice/src/mut_slice.zz:68
(declare-fun var187___slice__mut_slice__append_bytes__t0 () (_ BitVec 64))
(declare-fun var188_true__t0 () Bool)
(assert
  (= var188_true__t0 (theory1_safe var187___slice__mut_slice__append_bytes__t0) )
)

(assert
  var188_true__t0
)

; : /home/runner/work/carrier/carrier/modules/buffer/src/lib.zz:320
(declare-fun var189___buffer__substr__t0 () (_ BitVec 64))
(declare-fun var190_true__t0 () Bool)
(assert
  (= var190_true__t0 (theory1_safe var189___buffer__substr__t0) )
)

(assert
  var190_true__t0
)

; : /home/runner/work/carrier/carrier/modules/buffer/src/lib.zz:11
; : /home/runner/work/carrier/carrier/modules/slice/src/mut_slice.zz:87
(declare-fun var191___slice__mut_slice__append_cstr__t0 () (_ BitVec 64))
(declare-fun var192_true__t0 () Bool)
(assert
  (= var192_true__t0 (theory1_safe var191___slice__mut_slice__append_cstr__t0) )
)

(assert
  var192_true__t0
)

; : /home/runner/work/carrier/carrier/modules/slice/src/mut_slice.zz:131
(declare-fun var193___slice__mut_slice__push32__t0 () (_ BitVec 64))
(declare-fun var194_true__t0 () Bool)
(assert
  (= var194_true__t0 (theory1_safe var193___slice__mut_slice__push32__t0) )
)

(assert
  var194_true__t0
)

; : /home/runner/work/carrier/carrier/modules/buffer/src/lib.zz:25
(declare-fun var195___buffer__make__t0 () (_ BitVec 64))
(declare-fun var196_true__t0 () Bool)
(assert
  (= var196_true__t0 (theory1_safe var195___buffer__make__t0) )
)

(assert
  var196_true__t0
)

; : /home/runner/work/carrier/carrier/modules/slice/src/slice.zz:63
(declare-fun var197___slice__slice__split__t0 () (_ BitVec 64))
(declare-fun var198_true__t0 () Bool)
(assert
  (= var198_true__t0 (theory1_safe var197___slice__slice__split__t0) )
)

(assert
  var198_true__t0
)

; : /home/runner/work/carrier/carrier/modules/slice/src/mut_slice.zz:36
(declare-fun var199___slice__mut_slice__as_slice__t0 () (_ BitVec 64))
(declare-fun var200_true__t0 () Bool)
(assert
  (= var200_true__t0 (theory1_safe var199___slice__mut_slice__as_slice__t0) )
)

(assert
  var200_true__t0
)

; : /home/runner/work/carrier/carrier/modules/buffer/src/lib.zz:304
(declare-fun var201___buffer__fgets__t0 () (_ BitVec 64))
(declare-fun var202_true__t0 () Bool)
(assert
  (= var202_true__t0 (theory1_safe var201___buffer__fgets__t0) )
)

(assert
  var202_true__t0
)

; : /home/runner/work/carrier/carrier/modules/buffer/src/lib.zz:50
(declare-fun var203___buffer__cstr__t0 () (_ BitVec 64))
(declare-fun var204_true__t0 () Bool)
(assert
  (= var204_true__t0 (theory1_safe var203___buffer__cstr__t0) )
)

(assert
  var204_true__t0
)

; : /home/runner/work/carrier/carrier/modules/slice/src/mut_slice.zz:116
(declare-fun var205___slice__mut_slice__push16__t0 () (_ BitVec 64))
(declare-fun var206_true__t0 () Bool)
(assert
  (= var206_true__t0 (theory1_safe var205___slice__mut_slice__push16__t0) )
)

(assert
  var206_true__t0
)

;


;----------------------------------------------
;function ::net::address::none
;----------------------------------------------

(push 1)

; : /home/runner/work/carrier/carrier/modules/net/src/address.zz:29
; : /home/runner/work/carrier/carrier/modules/net/src/address.zz:29
; call of safe
; collecting theory invocation arguments
; end of collecting theory invocation arguments
(declare-fun var207_self__t0 () (_ BitVec 64))
(declare-fun var208_interpretation_of_theory_safe_over_self__t0 () Bool)
(assert
  (= var208_interpretation_of_theory_safe_over_self__t0 (theory1_safe var207_self__t0) )
)

(assert (! var208_interpretation_of_theory_safe_over_self__t0 :named A0))(check-sat)

; : /home/runner/work/carrier/carrier/modules/net/src/address.zz:30
; : /home/runner/work/carrier/carrier/modules/net/src/address.zz:30
; : /home/runner/work/carrier/carrier/modules/net/src/address.zz:30
; begin safe ptr check
(declare-fun var210_safe_self___t0 () Bool)
(assert
  (= var210_safe_self___t0 (theory1_safe var207_self__t0) )
)

(push 1)

(assert
  (and true (or (not var210_safe_self___t0 ) ))

)

(check-sat)

; unsat / pass
(pop 1)

; : /home/runner/work/carrier/carrier/modules/net/src/address.zz:30
; : /home/runner/work/carrier/carrier/modules/net/src/address.zz:10
(declare-fun var212_implicit_coercion_of___net__address__Type__Invalid__t0 () (_ BitVec 64))
(assert (! (= var212_implicit_coercion_of___net__address__Type__Invalid__t0 var83___net__address__Type__Invalid__t0) :named A1)); : /home/runner/work/carrier/carrier/modules/net/src/address.zz:30
(declare-fun var213_safe_implicit_coercion_of___net__address__Type__Invalid_____safe_deref_var207_self__typ___t0 () Bool)
(assert
  (= var213_safe_implicit_coercion_of___net__address__Type__Invalid_____safe_deref_var207_self__typ___t0 (theory1_safe var212_implicit_coercion_of___net__address__Type__Invalid__t0) )
)

(declare-fun var211_deref_var207_self__typ__t1 () (_ BitVec 64))
(assert
  (= var213_safe_implicit_coercion_of___net__address__Type__Invalid_____safe_deref_var207_self__typ___t0 (theory1_safe var211_deref_var207_self__typ__t1) )
)

(declare-fun var214_nullterm_implicit_coercion_of___net__address__Type__Invalid_____nullterm_deref_var207_self__typ___t0 () Bool)
(assert
  (= var214_nullterm_implicit_coercion_of___net__address__Type__Invalid_____nullterm_deref_var207_self__typ___t0 (theory2_nullterm var212_implicit_coercion_of___net__address__Type__Invalid__t0) )
)

(assert
  (= var214_nullterm_implicit_coercion_of___net__address__Type__Invalid_____nullterm_deref_var207_self__typ___t0 (theory2_nullterm var211_deref_var207_self__typ__t1) )
)

(declare-fun var211_deref_var207_self__typ__t0 () (_ BitVec 64))
(assert
  (= var211_deref_var207_self__typ__t1  (ite true var212_implicit_coercion_of___net__address__Type__Invalid__t0 var211_deref_var207_self__typ__t0)  )
)

;end of function ::net::address::none


(pop 1)

(declare-fun var207_self__t0 () (_ BitVec 64))
(declare-fun var208_interpretation_of_theory_safe_over_self__t0 () Bool)
(declare-fun var210_safe_self___t0 () Bool)
(declare-fun var213_safe_implicit_coercion_of___net__address__Type__Invalid_____safe_deref_var207_self__typ___t0 () Bool)
(declare-fun var211_deref_var207_self__typ__t1 () (_ BitVec 64))
(declare-fun var214_nullterm_implicit_coercion_of___net__address__Type__Invalid_____nullterm_deref_var207_self__typ___t0 () Bool)
(check-sat)

